17	4	3
13	14	14	16	29	16	41	
0	0	0	0	0	6	7	4	5	2	6	3	2	3	4
9	2	0	0	10	6	5	10	4	10	5	3	9	12	13
7	10	9	9	6	8	10	5	8	4	3	3	5	7	17
3	8	8	9	0	3	7	9	9	8	9	1	17
6	0	10	4	6	2	1	1	8	1	2	3	6	8	15
175	2	0	10	8	6	6	9	10	10	10	2	10	17
125	5	5	3	1	6	5	5	5	9	4	1	11
225	0	6	0	6	10	7	4	4	5	8	2	14	17
100	4	4	3	0	7	7	4	5	6	2	1	10
250	0	7	0	4	3	8	3	4	5	3	2	11	17
225	4	9	9	6	6	10	8	4	10	7	1	16
150	0	3	0	6	4	5	2	8	10	1	1	17
7	0	2	7	8	2	9	8	5	2	2	1	17
8	0	9	9	8	2	8	9	5	2	4	1	17
7	10	6	0	4	6	5	1	8	8	5	1	17
8	2	4	2	0	1	3	5	8	7	5	1	17
0	0	0	0	0	5	10	9	6	8	8	0
